c Reduced graph for r25 generated by Cyril Grelier
p edge 266 3177
e 1 12
e 1 31
e 1 41
e 1 69
e 1 71
e 1 79
e 1 81
e 1 84
e 1 87
e 1 100
e 1 143
e 1 181
e 1 182
e 1 190
e 1 231
e 1 241
e 1 242
e 1 249
e 1 257
e 2 13
e 2 19
e 2 33
e 2 34
e 2 37
e 2 45
e 2 48
e 2 52
e 2 63
e 2 70
e 2 114
e 2 123
e 2 134
e 2 137
e 2 146
e 2 147
e 2 155
e 2 170
e 2 187
e 2 190
e 2 193
e 2 206
e 2 209
e 2 266
e 3 18
e 3 30
e 3 50
e 3 53
e 3 54
e 3 65
e 3 85
e 3 103
e 3 107
e 3 115
e 3 124
e 3 143
e 3 165
e 3 178
e 3 192
e 3 200
e 3 209
e 3 210
e 3 218
e 3 223
e 3 225
e 3 230
e 3 242
e 3 244
e 3 247
e 3 261
e 3 263
e 4 10
e 4 34
e 4 35
e 4 36
e 4 41
e 4 56
e 4 73
e 4 85
e 4 133
e 4 138
e 4 144
e 4 145
e 4 151
e 4 179
e 4 194
e 4 199
e 4 210
e 4 213
e 4 224
e 4 229
e 4 236
e 4 238
e 4 245
e 4 248
e 4 255
e 5 25
e 5 27
e 5 28
e 5 35
e 5 38
e 5 39
e 5 46
e 5 57
e 5 65
e 5 92
e 5 101
e 5 111
e 5 123
e 5 135
e 5 144
e 5 149
e 5 159
e 5 167
e 5 198
e 5 201
e 5 215
e 5 230
e 5 234
e 6 21
e 6 23
e 6 37
e 6 69
e 6 70
e 6 90
e 6 93
e 6 94
e 6 105
e 6 109
e 6 110
e 6 127
e 6 132
e 6 153
e 6 162
e 6 167
e 6 169
e 6 172
e 6 175
e 6 197
e 6 217
e 6 220
e 6 225
e 6 228
e 6 244
e 6 260
e 7 8
e 7 33
e 7 55
e 7 61
e 7 76
e 7 92
e 7 93
e 7 100
e 7 106
e 7 122
e 7 131
e 7 138
e 7 149
e 7 164
e 7 175
e 7 177
e 7 202
e 7 214
e 7 216
e 7 218
e 7 221
e 7 233
e 7 236
e 7 254
e 7 259
e 8 13
e 8 33
e 8 43
e 8 50
e 8 61
e 8 73
e 8 92
e 8 100
e 8 106
e 8 108
e 8 112
e 8 122
e 8 141
e 8 159
e 8 160
e 8 164
e 8 175
e 8 177
e 8 183
e 8 195
e 8 202
e 8 216
e 8 236
e 8 256
e 9 15
e 9 16
e 9 46
e 9 49
e 9 74
e 9 75
e 9 82
e 9 105
e 9 131
e 9 137
e 9 140
e 9 141
e 9 150
e 9 152
e 9 161
e 9 165
e 9 187
e 9 196
e 9 216
e 9 238
e 9 243
e 9 246
e 10 36
e 10 41
e 10 42
e 10 44
e 10 51
e 10 68
e 10 71
e 10 72
e 10 73
e 10 85
e 10 106
e 10 133
e 10 138
e 10 142
e 10 144
e 10 145
e 10 151
e 10 205
e 10 207
e 10 208
e 10 213
e 10 229
e 10 237
e 10 238
e 10 246
e 10 248
e 10 255
e 11 22
e 11 25
e 11 29
e 11 44
e 11 48
e 11 66
e 11 88
e 11 97
e 11 115
e 11 130
e 11 134
e 11 139
e 11 150
e 11 151
e 11 219
e 11 226
e 11 235
e 11 241
e 11 253
e 12 15
e 12 31
e 12 36
e 12 66
e 12 71
e 12 79
e 12 86
e 12 91
e 12 116
e 12 136
e 12 147
e 12 148
e 12 182
e 12 188
e 12 202
e 12 222
e 12 242
e 12 251
e 12 257
e 12 260
e 13 34
e 13 37
e 13 43
e 13 45
e 13 48
e 13 50
e 13 52
e 13 63
e 13 73
e 13 108
e 13 112
e 13 137
e 13 141
e 13 147
e 13 155
e 13 159
e 13 160
e 13 183
e 13 190
e 13 193
e 13 195
e 13 256
e 14 16
e 14 26
e 14 32
e 14 38
e 14 51
e 14 52
e 14 60
e 14 78
e 14 79
e 14 86
e 14 104
e 14 132
e 14 146
e 14 154
e 14 157
e 14 162
e 14 184
e 14 192
e 14 203
e 14 211
e 14 248
e 14 261
e 15 16
e 15 36
e 15 46
e 15 66
e 15 75
e 15 86
e 15 91
e 15 105
e 15 116
e 15 131
e 15 136
e 15 141
e 15 147
e 15 148
e 15 150
e 15 161
e 15 165
e 15 187
e 15 188
e 15 196
e 15 202
e 15 222
e 15 246
e 15 251
e 15 260
e 16 26
e 16 32
e 16 46
e 16 52
e 16 60
e 16 75
e 16 79
e 16 105
e 16 131
e 16 132
e 16 141
e 16 150
e 16 161
e 16 165
e 16 184
e 16 187
e 16 196
e 16 203
e 16 211
e 16 246
e 16 248
e 16 261
e 17 31
e 17 54
e 17 62
e 17 80
e 17 87
e 17 104
e 17 108
e 17 117
e 17 120
e 17 128
e 17 140
e 17 166
e 17 168
e 17 169
e 17 170
e 17 186
e 17 189
e 17 196
e 17 211
e 17 226
e 17 229
e 17 233
e 18 24
e 18 29
e 18 50
e 18 53
e 18 59
e 18 65
e 18 90
e 18 102
e 18 107
e 18 115
e 18 119
e 18 124
e 18 129
e 18 143
e 18 158
e 18 164
e 18 166
e 18 182
e 18 209
e 18 210
e 18 218
e 18 223
e 18 244
e 18 261
e 19 33
e 19 49
e 19 56
e 19 68
e 19 70
e 19 102
e 19 109
e 19 114
e 19 123
e 19 134
e 19 146
e 19 170
e 19 176
e 19 187
e 19 204
e 19 206
e 19 209
e 19 232
e 19 240
e 19 249
e 19 251
e 19 252
e 19 254
e 19 266
e 20 27
e 20 62
e 20 82
e 20 83
e 20 101
e 20 103
e 20 118
e 20 121
e 20 122
e 20 128
e 20 155
e 20 157
e 20 158
e 20 171
e 20 183
e 20 191
e 20 194
e 20 212
e 20 217
e 20 220
e 20 223
e 20 227
e 20 232
e 20 239
e 20 255
e 20 257
e 21 26
e 21 37
e 21 39
e 21 42
e 21 64
e 21 74
e 21 105
e 21 109
e 21 110
e 21 114
e 21 127
e 21 153
e 21 162
e 21 169
e 21 175
e 21 197
e 21 200
e 21 212
e 21 214
e 21 220
e 21 222
e 21 244
e 21 256
e 21 264
e 22 25
e 22 43
e 22 48
e 22 58
e 22 59
e 22 81
e 22 96
e 22 113
e 22 115
e 22 121
e 22 139
e 22 150
e 22 151
e 22 168
e 22 174
e 22 180
e 22 184
e 22 197
e 22 201
e 22 206
e 22 207
e 22 219
e 22 221
e 22 235
e 22 253
e 23 45
e 23 69
e 23 70
e 23 80
e 23 90
e 23 93
e 23 94
e 23 125
e 23 130
e 23 132
e 23 154
e 23 163
e 23 167
e 23 172
e 23 180
e 23 215
e 23 217
e 23 225
e 23 228
e 23 239
e 23 260
e 24 29
e 24 40
e 24 59
e 24 60
e 24 90
e 24 102
e 24 116
e 24 119
e 24 129
e 24 139
e 24 158
e 24 160
e 24 164
e 24 166
e 24 178
e 24 182
e 24 231
e 24 245
e 25 35
e 25 48
e 25 57
e 25 101
e 25 111
e 25 115
e 25 123
e 25 135
e 25 139
e 25 149
e 25 150
e 25 151
e 25 159
e 25 215
e 25 219
e 25 230
e 25 235
e 25 253
e 26 32
e 26 39
e 26 42
e 26 52
e 26 60
e 26 64
e 26 74
e 26 79
e 26 114
e 26 132
e 26 184
e 26 200
e 26 203
e 26 211
e 26 212
e 26 214
e 26 222
e 26 248
e 26 256
e 26 261
e 26 264
e 27 28
e 27 38
e 27 39
e 27 46
e 27 65
e 27 82
e 27 92
e 27 103
e 27 118
e 27 128
e 27 144
e 27 158
e 27 167
e 27 183
e 27 191
e 27 194
e 27 198
e 27 201
e 27 220
e 27 227
e 27 234
e 27 239
e 28 30
e 28 38
e 28 39
e 28 46
e 28 47
e 28 55
e 28 65
e 28 92
e 28 112
e 28 126
e 28 144
e 28 167
e 28 173
e 28 179
e 28 198
e 28 201
e 28 205
e 28 234
e 28 258
e 28 266
e 29 44
e 29 59
e 29 66
e 29 88
e 29 90
e 29 97
e 29 102
e 29 119
e 29 129
e 29 130
e 29 134
e 29 158
e 29 164
e 29 166
e 29 182
e 29 226
e 29 241
e 30 47
e 30 54
e 30 55
e 30 85
e 30 103
e 30 112
e 30 126
e 30 165
e 30 173
e 30 178
e 30 179
e 30 192
e 30 200
e 30 205
e 30 225
e 30 230
e 30 242
e 30 247
e 30 258
e 30 263
e 30 266
e 31 71
e 31 79
e 31 104
e 31 117
e 31 128
e 31 168
e 31 182
e 31 186
e 31 189
e 31 196
e 31 226
e 31 229
e 31 242
e 31 257
e 32 52
e 32 60
e 32 77
e 32 79
e 32 117
e 32 129
e 32 132
e 32 148
e 32 152
e 32 163
e 32 181
e 32 184
e 32 203
e 32 208
e 32 211
e 32 248
e 32 253
e 32 261
e 32 262
e 33 61
e 33 70
e 33 92
e 33 100
e 33 106
e 33 114
e 33 122
e 33 123
e 33 134
e 33 146
e 33 164
e 33 170
e 33 175
e 33 177
e 33 187
e 33 202
e 33 206
e 33 209
e 33 216
e 33 236
e 33 266
e 34 35
e 34 37
e 34 45
e 34 48
e 34 52
e 34 56
e 34 63
e 34 137
e 34 147
e 34 155
e 34 179
e 34 190
e 34 193
e 34 194
e 34 199
e 34 210
e 34 224
e 34 236
e 34 245
e 35 56
e 35 57
e 35 101
e 35 111
e 35 123
e 35 135
e 35 149
e 35 159
e 35 179
e 35 194
e 35 199
e 35 210
e 35 215
e 35 224
e 35 230
e 35 236
e 35 245
e 36 41
e 36 66
e 36 73
e 36 85
e 36 86
e 36 91
e 36 116
e 36 133
e 36 136
e 36 138
e 36 144
e 36 145
e 36 147
e 36 148
e 36 151
e 36 188
e 36 202
e 36 213
e 36 222
e 36 229
e 36 238
e 36 248
e 36 251
e 36 255
e 36 260
e 37 45
e 37 48
e 37 52
e 37 63
e 37 105
e 37 109
e 37 110
e 37 127
e 37 137
e 37 147
e 37 153
e 37 155
e 37 162
e 37 169
e 37 175
e 37 190
e 37 193
e 37 197
e 37 220
e 37 244
e 38 39
e 38 46
e 38 51
e 38 65
e 38 78
e 38 86
e 38 92
e 38 104
e 38 144
e 38 146
e 38 154
e 38 157
e 38 162
e 38 167
e 38 192
e 38 198
e 38 201
e 38 234
e 39 42
e 39 46
e 39 64
e 39 65
e 39 74
e 39 92
e 39 114
e 39 144
e 39 167
e 39 198
e 39 200
e 39 201
e 39 212
e 39 214
e 39 222
e 39 234
e 39 256
e 39 264
e 40 58
e 40 60
e 40 89
e 40 94
e 40 98
e 40 116
e 40 120
e 40 124
e 40 139
e 40 160
e 40 177
e 40 178
e 40 213
e 40 227
e 40 231
e 40 245
e 40 252
e 40 258
e 41 69
e 41 73
e 41 81
e 41 84
e 41 85
e 41 87
e 41 100
e 41 133
e 41 138
e 41 143
e 41 144
e 41 145
e 41 151
e 41 181
e 41 190
e 41 213
e 41 229
e 41 231
e 41 238
e 41 241
e 41 248
e 41 249
e 41 255
e 42 44
e 42 51
e 42 64
e 42 68
e 42 71
e 42 72
e 42 74
e 42 106
e 42 114
e 42 142
e 42 200
e 42 205
e 42 207
e 42 208
e 42 212
e 42 214
e 42 222
e 42 237
e 42 246
e 42 256
e 42 264
e 43 50
e 43 58
e 43 59
e 43 73
e 43 81
e 43 96
e 43 108
e 43 112
e 43 113
e 43 121
e 43 141
e 43 159
e 43 160
e 43 168
e 43 174
e 43 180
e 43 183
e 43 184
e 43 195
e 43 197
e 43 201
e 43 206
e 43 207
e 43 221
e 43 256
e 44 51
e 44 66
e 44 68
e 44 71
e 44 72
e 44 88
e 44 97
e 44 106
e 44 130
e 44 134
e 44 142
e 44 205
e 44 207
e 44 208
e 44 226
e 44 237
e 44 241
e 44 246
e 45 48
e 45 52
e 45 63
e 45 80
e 45 125
e 45 130
e 45 137
e 45 147
e 45 154
e 45 155
e 45 163
e 45 180
e 45 190
e 45 193
e 45 215
e 45 239
e 46 65
e 46 75
e 46 92
e 46 105
e 46 131
e 46 141
e 46 144
e 46 150
e 46 161
e 46 165
e 46 167
e 46 187
e 46 196
e 46 198
e 46 201
e 46 234
e 46 246
e 47 55
e 47 64
e 47 77
e 47 78
e 47 88
e 47 112
e 47 126
e 47 135
e 47 145
e 47 161
e 47 172
e 47 173
e 47 174
e 47 179
e 47 191
e 47 193
e 47 204
e 47 205
e 47 250
e 47 258
e 47 266
e 48 52
e 48 63
e 48 115
e 48 137
e 48 139
e 48 147
e 48 150
e 48 151
e 48 155
e 48 190
e 48 193
e 48 219
e 48 235
e 48 253
e 49 56
e 49 68
e 49 74
e 49 82
e 49 102
e 49 109
e 49 137
e 49 140
e 49 152
e 49 176
e 49 204
e 49 216
e 49 232
e 49 238
e 49 240
e 49 243
e 49 249
e 49 251
e 49 252
e 49 254
e 50 53
e 50 65
e 50 73
e 50 107
e 50 108
e 50 112
e 50 115
e 50 124
e 50 141
e 50 143
e 50 159
e 50 160
e 50 183
e 50 195
e 50 209
e 50 210
e 50 218
e 50 223
e 50 244
e 50 256
e 50 261
e 51 68
e 51 71
e 51 72
e 51 78
e 51 86
e 51 104
e 51 106
e 51 142
e 51 146
e 51 154
e 51 157
e 51 162
e 51 192
e 51 205
e 51 207
e 51 208
e 51 237
e 51 246
e 52 60
e 52 63
e 52 79
e 52 132
e 52 137
e 52 147
e 52 155
e 52 184
e 52 190
e 52 193
e 52 203
e 52 211
e 52 248
e 52 261
e 53 61
e 53 63
e 53 65
e 53 67
e 53 99
e 53 107
e 53 111
e 53 113
e 53 115
e 53 124
e 53 133
e 53 143
e 53 156
e 53 173
e 53 209
e 53 210
e 53 218
e 53 223
e 53 240
e 53 244
e 53 261
e 53 262
e 54 62
e 54 80
e 54 85
e 54 87
e 54 103
e 54 108
e 54 120
e 54 140
e 54 165
e 54 166
e 54 169
e 54 170
e 54 178
e 54 192
e 54 200
e 54 211
e 54 225
e 54 230
e 54 233
e 54 242
e 54 247
e 54 263
e 55 76
e 55 93
e 55 112
e 55 126
e 55 131
e 55 138
e 55 149
e 55 173
e 55 179
e 55 205
e 55 214
e 55 218
e 55 221
e 55 233
e 55 254
e 55 258
e 55 259
e 55 266
e 56 68
e 56 102
e 56 109
e 56 176
e 56 179
e 56 194
e 56 199
e 56 204
e 56 210
e 56 224
e 56 232
e 56 236
e 56 240
e 56 245
e 56 249
e 56 251
e 56 252
e 56 254
e 57 75
e 57 95
e 57 96
e 57 97
e 57 101
e 57 107
e 57 111
e 57 118
e 57 123
e 57 126
e 57 135
e 57 149
e 57 159
e 57 176
e 57 185
e 57 215
e 57 228
e 57 230
e 57 264
e 57 265
e 58 59
e 58 81
e 58 89
e 58 94
e 58 96
e 58 98
e 58 113
e 58 120
e 58 121
e 58 124
e 58 168
e 58 174
e 58 177
e 58 180
e 58 184
e 58 197
e 58 201
e 58 206
e 58 207
e 58 213
e 58 221
e 58 227
e 58 252
e 58 258
e 59 81
e 59 90
e 59 96
e 59 102
e 59 113
e 59 119
e 59 121
e 59 129
e 59 158
e 59 164
e 59 166
e 59 168
e 59 174
e 59 180
e 59 182
e 59 184
e 59 197
e 59 201
e 59 206
e 59 207
e 59 221
e 60 79
e 60 116
e 60 132
e 60 139
e 60 160
e 60 178
e 60 184
e 60 203
e 60 211
e 60 231
e 60 245
e 60 248
e 60 261
e 61 63
e 61 67
e 61 92
e 61 99
e 61 100
e 61 106
e 61 111
e 61 113
e 61 122
e 61 133
e 61 156
e 61 164
e 61 173
e 61 175
e 61 177
e 61 202
e 61 216
e 61 236
e 61 240
e 61 262
e 62 80
e 62 83
e 62 87
e 62 101
e 62 108
e 62 120
e 62 121
e 62 122
e 62 140
e 62 155
e 62 157
e 62 166
e 62 169
e 62 170
e 62 171
e 62 211
e 62 212
e 62 217
e 62 223
e 62 232
e 62 233
e 62 255
e 62 257
e 63 67
e 63 99
e 63 111
e 63 113
e 63 133
e 63 137
e 63 147
e 63 155
e 63 156
e 63 173
e 63 190
e 63 193
e 63 240
e 63 262
e 64 74
e 64 77
e 64 78
e 64 88
e 64 114
e 64 135
e 64 145
e 64 161
e 64 172
e 64 174
e 64 191
e 64 193
e 64 200
e 64 204
e 64 212
e 64 214
e 64 222
e 64 250
e 64 256
e 64 264
e 65 92
e 65 107
e 65 115
e 65 124
e 65 143
e 65 144
e 65 167
e 65 198
e 65 201
e 65 209
e 65 210
e 65 218
e 65 223
e 65 234
e 65 244
e 65 261
e 66 86
e 66 88
e 66 91
e 66 97
e 66 116
e 66 130
e 66 134
e 66 136
e 66 147
e 66 148
e 66 188
e 66 202
e 66 222
e 66 226
e 66 241
e 66 251
e 66 260
e 67 84
e 67 89
e 67 99
e 67 110
e 67 111
e 67 113
e 67 119
e 67 133
e 67 136
e 67 156
e 67 173
e 67 198
e 67 224
e 67 235
e 67 237
e 67 240
e 67 243
e 67 250
e 67 259
e 67 262
e 67 265
e 68 71
e 68 72
e 68 102
e 68 106
e 68 109
e 68 142
e 68 176
e 68 204
e 68 205
e 68 207
e 68 208
e 68 232
e 68 237
e 68 240
e 68 246
e 68 249
e 68 251
e 68 252
e 68 254
e 69 70
e 69 81
e 69 84
e 69 87
e 69 90
e 69 93
e 69 94
e 69 100
e 69 132
e 69 143
e 69 167
e 69 172
e 69 181
e 69 190
e 69 217
e 69 225
e 69 228
e 69 231
e 69 241
e 69 249
e 69 260
e 70 90
e 70 93
e 70 94
e 70 114
e 70 123
e 70 132
e 70 134
e 70 146
e 70 167
e 70 170
e 70 172
e 70 187
e 70 206
e 70 209
e 70 217
e 70 225
e 70 228
e 70 260
e 70 266
e 71 72
e 71 79
e 71 106
e 71 142
e 71 182
e 71 205
e 71 207
e 71 208
e 71 237
e 71 242
e 71 246
e 71 257
e 72 76
e 72 83
e 72 98
e 72 106
e 72 142
e 72 153
e 72 156
e 72 185
e 72 188
e 72 189
e 72 195
e 72 199
e 72 203
e 72 205
e 72 207
e 72 208
e 72 219
e 72 237
e 72 246
e 72 263
e 73 85
e 73 108
e 73 112
e 73 133
e 73 138
e 73 141
e 73 144
e 73 145
e 73 151
e 73 159
e 73 160
e 73 183
e 73 195
e 73 213
e 73 229
e 73 238
e 73 248
e 73 255
e 73 256
e 74 82
e 74 114
e 74 137
e 74 140
e 74 152
e 74 200
e 74 212
e 74 214
e 74 216
e 74 222
e 74 238
e 74 243
e 74 256
e 74 264
e 75 95
e 75 96
e 75 97
e 75 105
e 75 107
e 75 118
e 75 126
e 75 131
e 75 141
e 75 150
e 75 161
e 75 165
e 75 176
e 75 185
e 75 187
e 75 196
e 75 228
e 75 246
e 75 264
e 75 265
e 76 83
e 76 93
e 76 98
e 76 131
e 76 138
e 76 149
e 76 153
e 76 156
e 76 185
e 76 188
e 76 189
e 76 195
e 76 199
e 76 203
e 76 214
e 76 218
e 76 219
e 76 221
e 76 233
e 76 254
e 76 259
e 76 263
e 77 78
e 77 88
e 77 117
e 77 129
e 77 135
e 77 145
e 77 148
e 77 152
e 77 161
e 77 163
e 77 172
e 77 174
e 77 181
e 77 191
e 77 193
e 77 204
e 77 208
e 77 250
e 77 253
e 77 262
e 78 86
e 78 88
e 78 104
e 78 135
e 78 145
e 78 146
e 78 154
e 78 157
e 78 161
e 78 162
e 78 172
e 78 174
e 78 191
e 78 192
e 78 193
e 78 204
e 78 250
e 79 132
e 79 182
e 79 184
e 79 203
e 79 211
e 79 242
e 79 248
e 79 257
e 79 261
e 80 87
e 80 108
e 80 120
e 80 125
e 80 130
e 80 140
e 80 154
e 80 163
e 80 166
e 80 169
e 80 170
e 80 180
e 80 211
e 80 215
e 80 233
e 80 239
e 81 84
e 81 87
e 81 96
e 81 100
e 81 113
e 81 121
e 81 143
e 81 168
e 81 174
e 81 180
e 81 181
e 81 184
e 81 190
e 81 197
e 81 201
e 81 206
e 81 207
e 81 221
e 81 231
e 81 241
e 81 249
e 82 103
e 82 118
e 82 128
e 82 137
e 82 140
e 82 152
e 82 158
e 82 183
e 82 191
e 82 194
e 82 216
e 82 220
e 82 227
e 82 238
e 82 239
e 82 243
e 83 98
e 83 101
e 83 121
e 83 122
e 83 153
e 83 155
e 83 156
e 83 157
e 83 171
e 83 185
e 83 188
e 83 189
e 83 195
e 83 199
e 83 203
e 83 212
e 83 217
e 83 219
e 83 223
e 83 232
e 83 255
e 83 257
e 83 263
e 84 87
e 84 89
e 84 100
e 84 110
e 84 119
e 84 136
e 84 143
e 84 181
e 84 190
e 84 198
e 84 224
e 84 231
e 84 235
e 84 237
e 84 241
e 84 243
e 84 249
e 84 250
e 84 259
e 84 265
e 85 103
e 85 133
e 85 138
e 85 144
e 85 145
e 85 151
e 85 165
e 85 178
e 85 192
e 85 200
e 85 213
e 85 225
e 85 229
e 85 230
e 85 238
e 85 242
e 85 247
e 85 248
e 85 255
e 85 263
e 86 91
e 86 104
e 86 116
e 86 136
e 86 146
e 86 147
e 86 148
e 86 154
e 86 157
e 86 162
e 86 188
e 86 192
e 86 202
e 86 222
e 86 251
e 86 260
e 87 100
e 87 108
e 87 120
e 87 140
e 87 143
e 87 166
e 87 169
e 87 170
e 87 181
e 87 190
e 87 211
e 87 231
e 87 233
e 87 241
e 87 249
e 88 97
e 88 130
e 88 134
e 88 135
e 88 145
e 88 161
e 88 172
e 88 174
e 88 191
e 88 193
e 88 204
e 88 226
e 88 241
e 88 250
e 89 94
e 89 98
e 89 110
e 89 119
e 89 120
e 89 124
e 89 136
e 89 177
e 89 198
e 89 213
e 89 224
e 89 227
e 89 235
e 89 237
e 89 243
e 89 250
e 89 252
e 89 258
e 89 259
e 89 265
e 90 93
e 90 94
e 90 102
e 90 119
e 90 129
e 90 132
e 90 158
e 90 164
e 90 166
e 90 167
e 90 172
e 90 182
e 90 217
e 90 225
e 90 228
e 90 260
e 91 95
e 91 99
e 91 116
e 91 125
e 91 127
e 91 136
e 91 142
e 91 147
e 91 148
e 91 171
e 91 186
e 91 188
e 91 202
e 91 222
e 91 234
e 91 247
e 91 251
e 91 260
e 92 100
e 92 106
e 92 122
e 92 144
e 92 164
e 92 167
e 92 175
e 92 177
e 92 198
e 92 201
e 92 202
e 92 216
e 92 234
e 92 236
e 93 94
e 93 131
e 93 132
e 93 138
e 93 149
e 93 167
e 93 172
e 93 214
e 93 217
e 93 218
e 93 221
e 93 225
e 93 228
e 93 233
e 93 254
e 93 259
e 93 260
e 94 98
e 94 120
e 94 124
e 94 132
e 94 167
e 94 172
e 94 177
e 94 213
e 94 217
e 94 225
e 94 227
e 94 228
e 94 252
e 94 258
e 94 260
e 95 96
e 95 97
e 95 99
e 95 107
e 95 118
e 95 125
e 95 126
e 95 127
e 95 142
e 95 171
e 95 176
e 95 185
e 95 186
e 95 228
e 95 234
e 95 247
e 95 264
e 95 265
e 96 97
e 96 107
e 96 113
e 96 118
e 96 121
e 96 126
e 96 168
e 96 174
e 96 176
e 96 180
e 96 184
e 96 185
e 96 197
e 96 201
e 96 206
e 96 207
e 96 221
e 96 228
e 96 264
e 96 265
e 97 107
e 97 118
e 97 126
e 97 130
e 97 134
e 97 176
e 97 185
e 97 226
e 97 228
e 97 241
e 97 264
e 97 265
e 98 120
e 98 124
e 98 153
e 98 156
e 98 177
e 98 185
e 98 188
e 98 189
e 98 195
e 98 199
e 98 203
e 98 213
e 98 219
e 98 227
e 98 252
e 98 258
e 98 263
e 99 111
e 99 113
e 99 125
e 99 127
e 99 133
e 99 142
e 99 156
e 99 171
e 99 173
e 99 186
e 99 234
e 99 240
e 99 247
e 99 262
e 100 106
e 100 122
e 100 143
e 100 164
e 100 175
e 100 177
e 100 181
e 100 190
e 100 202
e 100 216
e 100 231
e 100 236
e 100 241
e 100 249
e 101 111
e 101 121
e 101 122
e 101 123
e 101 135
e 101 149
e 101 155
e 101 157
e 101 159
e 101 171
e 101 212
e 101 215
e 101 217
e 101 223
e 101 230
e 101 232
e 101 255
e 101 257
e 102 109
e 102 119
e 102 129
e 102 158
e 102 164
e 102 166
e 102 176
e 102 182
e 102 204
e 102 232
e 102 240
e 102 249
e 102 251
e 102 252
e 102 254
e 103 118
e 103 128
e 103 158
e 103 165
e 103 178
e 103 183
e 103 191
e 103 192
e 103 194
e 103 200
e 103 220
e 103 225
e 103 227
e 103 230
e 103 239
e 103 242
e 103 247
e 103 263
e 104 117
e 104 128
e 104 146
e 104 154
e 104 157
e 104 162
e 104 168
e 104 186
e 104 189
e 104 192
e 104 196
e 104 226
e 104 229
e 105 109
e 105 110
e 105 127
e 105 131
e 105 141
e 105 150
e 105 153
e 105 161
e 105 162
e 105 165
e 105 169
e 105 175
e 105 187
e 105 196
e 105 197
e 105 220
e 105 244
e 105 246
e 106 122
e 106 142
e 106 164
e 106 175
e 106 177
e 106 202
e 106 205
e 106 207
e 106 208
e 106 216
e 106 236
e 106 237
e 106 246
e 107 115
e 107 118
e 107 124
e 107 126
e 107 143
e 107 176
e 107 185
e 107 209
e 107 210
e 107 218
e 107 223
e 107 228
e 107 244
e 107 261
e 107 264
e 107 265
e 108 112
e 108 120
e 108 140
e 108 141
e 108 159
e 108 160
e 108 166
e 108 169
e 108 170
e 108 183
e 108 195
e 108 211
e 108 233
e 108 256
e 109 110
e 109 127
e 109 153
e 109 162
e 109 169
e 109 175
e 109 176
e 109 197
e 109 204
e 109 220
e 109 232
e 109 240
e 109 244
e 109 249
e 109 251
e 109 252
e 109 254
e 110 119
e 110 127
e 110 136
e 110 153
e 110 162
e 110 169
e 110 175
e 110 197
e 110 198
e 110 220
e 110 224
e 110 235
e 110 237
e 110 243
e 110 244
e 110 250
e 110 259
e 110 265
e 111 113
e 111 123
e 111 133
e 111 135
e 111 149
e 111 156
e 111 159
e 111 173
e 111 215
e 111 230
e 111 240
e 111 262
e 112 126
e 112 141
e 112 159
e 112 160
e 112 173
e 112 179
e 112 183
e 112 195
e 112 205
e 112 256
e 112 258
e 112 266
e 113 121
e 113 133
e 113 156
e 113 168
e 113 173
e 113 174
e 113 180
e 113 184
e 113 197
e 113 201
e 113 206
e 113 207
e 113 221
e 113 240
e 113 262
e 114 123
e 114 134
e 114 146
e 114 170
e 114 187
e 114 200
e 114 206
e 114 209
e 114 212
e 114 214
e 114 222
e 114 256
e 114 264
e 114 266
e 115 124
e 115 139
e 115 143
e 115 150
e 115 151
e 115 209
e 115 210
e 115 218
e 115 219
e 115 223
e 115 235
e 115 244
e 115 253
e 115 261
e 116 136
e 116 139
e 116 147
e 116 148
e 116 160
e 116 178
e 116 188
e 116 202
e 116 222
e 116 231
e 116 245
e 116 251
e 116 260
e 117 128
e 117 129
e 117 148
e 117 152
e 117 163
e 117 168
e 117 181
e 117 186
e 117 189
e 117 196
e 117 208
e 117 226
e 117 229
e 117 253
e 117 262
e 118 126
e 118 128
e 118 158
e 118 176
e 118 183
e 118 185
e 118 191
e 118 194
e 118 220
e 118 227
e 118 228
e 118 239
e 118 264
e 118 265
e 119 129
e 119 136
e 119 158
e 119 164
e 119 166
e 119 182
e 119 198
e 119 224
e 119 235
e 119 237
e 119 243
e 119 250
e 119 259
e 119 265
e 120 124
e 120 140
e 120 166
e 120 169
e 120 170
e 120 177
e 120 211
e 120 213
e 120 227
e 120 233
e 120 252
e 120 258
e 121 122
e 121 155
e 121 157
e 121 168
e 121 171
e 121 174
e 121 180
e 121 184
e 121 197
e 121 201
e 121 206
e 121 207
e 121 212
e 121 217
e 121 221
e 121 223
e 121 232
e 121 255
e 121 257
e 122 155
e 122 157
e 122 164
e 122 171
e 122 175
e 122 177
e 122 202
e 122 212
e 122 216
e 122 217
e 122 223
e 122 232
e 122 236
e 122 255
e 122 257
e 123 134
e 123 135
e 123 146
e 123 149
e 123 159
e 123 170
e 123 187
e 123 206
e 123 209
e 123 215
e 123 230
e 123 266
e 124 143
e 124 177
e 124 209
e 124 210
e 124 213
e 124 218
e 124 223
e 124 227
e 124 244
e 124 252
e 124 258
e 124 261
e 125 127
e 125 130
e 125 142
e 125 154
e 125 163
e 125 171
e 125 180
e 125 186
e 125 215
e 125 234
e 125 239
e 125 247
e 126 173
e 126 176
e 126 179
e 126 185
e 126 205
e 126 228
e 126 258
e 126 264
e 126 265
e 126 266
e 127 142
e 127 153
e 127 162
e 127 169
e 127 171
e 127 175
e 127 186
e 127 197
e 127 220
e 127 234
e 127 244
e 127 247
e 128 158
e 128 168
e 128 183
e 128 186
e 128 189
e 128 191
e 128 194
e 128 196
e 128 220
e 128 226
e 128 227
e 128 229
e 128 239
e 129 148
e 129 152
e 129 158
e 129 163
e 129 164
e 129 166
e 129 181
e 129 182
e 129 208
e 129 253
e 129 262
e 130 134
e 130 154
e 130 163
e 130 180
e 130 215
e 130 226
e 130 239
e 130 241
e 131 138
e 131 141
e 131 149
e 131 150
e 131 161
e 131 165
e 131 187
e 131 196
e 131 214
e 131 218
e 131 221
e 131 233
e 131 246
e 131 254
e 131 259
e 132 167
e 132 172
e 132 184
e 132 203
e 132 211
e 132 217
e 132 225
e 132 228
e 132 248
e 132 260
e 132 261
e 133 138
e 133 144
e 133 145
e 133 151
e 133 156
e 133 173
e 133 213
e 133 229
e 133 238
e 133 240
e 133 248
e 133 255
e 133 262
e 134 146
e 134 170
e 134 187
e 134 206
e 134 209
e 134 226
e 134 241
e 134 266
e 135 145
e 135 149
e 135 159
e 135 161
e 135 172
e 135 174
e 135 191
e 135 193
e 135 204
e 135 215
e 135 230
e 135 250
e 136 147
e 136 148
e 136 188
e 136 198
e 136 202
e 136 222
e 136 224
e 136 235
e 136 237
e 136 243
e 136 250
e 136 251
e 136 259
e 136 260
e 136 265
e 137 140
e 137 147
e 137 152
e 137 155
e 137 190
e 137 193
e 137 216
e 137 238
e 137 243
e 138 144
e 138 145
e 138 149
e 138 151
e 138 213
e 138 214
e 138 218
e 138 221
e 138 229
e 138 233
e 138 238
e 138 248
e 138 254
e 138 255
e 138 259
e 139 150
e 139 151
e 139 160
e 139 178
e 139 219
e 139 231
e 139 235
e 139 245
e 139 253
e 140 152
e 140 166
e 140 169
e 140 170
e 140 211
e 140 216
e 140 233
e 140 238
e 140 243
e 141 150
e 141 159
e 141 160
e 141 161
e 141 165
e 141 183
e 141 187
e 141 195
e 141 196
e 141 246
e 141 256
e 142 171
e 142 186
e 142 205
e 142 207
e 142 208
e 142 234
e 142 237
e 142 246
e 142 247
e 143 181
e 143 190
e 143 209
e 143 210
e 143 218
e 143 223
e 143 231
e 143 241
e 143 244
e 143 249
e 143 261
e 144 145
e 144 151
e 144 167
e 144 198
e 144 201
e 144 213
e 144 229
e 144 234
e 144 238
e 144 248
e 144 255
e 145 151
e 145 161
e 145 172
e 145 174
e 145 191
e 145 193
e 145 204
e 145 213
e 145 229
e 145 238
e 145 248
e 145 250
e 145 255
e 146 154
e 146 157
e 146 162
e 146 170
e 146 187
e 146 192
e 146 206
e 146 209
e 146 266
e 147 148
e 147 155
e 147 188
e 147 190
e 147 193
e 147 202
e 147 222
e 147 251
e 147 260
e 148 152
e 148 163
e 148 181
e 148 188
e 148 202
e 148 208
e 148 222
e 148 251
e 148 253
e 148 260
e 148 262
e 149 159
e 149 214
e 149 215
e 149 218
e 149 221
e 149 230
e 149 233
e 149 254
e 149 259
e 150 151
e 150 161
e 150 165
e 150 187
e 150 196
e 150 219
e 150 235
e 150 246
e 150 253
e 151 213
e 151 219
e 151 229
e 151 235
e 151 238
e 151 248
e 151 253
e 151 255
e 152 163
e 152 181
e 152 208
e 152 216
e 152 238
e 152 243
e 152 253
e 152 262
e 153 156
e 153 162
e 153 169
e 153 175
e 153 185
e 153 188
e 153 189
e 153 195
e 153 197
e 153 199
e 153 203
e 153 219
e 153 220
e 153 244
e 153 263
e 154 157
e 154 162
e 154 163
e 154 180
e 154 192
e 154 215
e 154 239
e 155 157
e 155 171
e 155 190
e 155 193
e 155 212
e 155 217
e 155 223
e 155 232
e 155 255
e 155 257
e 156 173
e 156 185
e 156 188
e 156 189
e 156 195
e 156 199
e 156 203
e 156 219
e 156 240
e 156 262
e 156 263
e 157 162
e 157 171
e 157 192
e 157 212
e 157 217
e 157 223
e 157 232
e 157 255
e 157 257
e 158 164
e 158 166
e 158 182
e 158 183
e 158 191
e 158 194
e 158 220
e 158 227
e 158 239
e 159 160
e 159 183
e 159 195
e 159 215
e 159 230
e 159 256
e 160 178
e 160 183
e 160 195
e 160 231
e 160 245
e 160 256
e 161 165
e 161 172
e 161 174
e 161 187
e 161 191
e 161 193
e 161 196
e 161 204
e 161 246
e 161 250
e 162 169
e 162 175
e 162 192
e 162 197
e 162 220
e 162 244
e 163 180
e 163 181
e 163 208
e 163 215
e 163 239
e 163 253
e 163 262
e 164 166
e 164 175
e 164 177
e 164 182
e 164 202
e 164 216
e 164 236
e 165 178
e 165 187
e 165 192
e 165 196
e 165 200
e 165 225
e 165 230
e 165 242
e 165 246
e 165 247
e 165 263
e 166 169
e 166 170
e 166 182
e 166 211
e 166 233
e 167 172
e 167 198
e 167 201
e 167 217
e 167 225
e 167 228
e 167 234
e 167 260
e 168 174
e 168 180
e 168 184
e 168 186
e 168 189
e 168 196
e 168 197
e 168 201
e 168 206
e 168 207
e 168 221
e 168 226
e 168 229
e 169 170
e 169 175
e 169 197
e 169 211
e 169 220
e 169 233
e 169 244
e 170 187
e 170 206
e 170 209
e 170 211
e 170 233
e 170 266
e 171 186
e 171 212
e 171 217
e 171 223
e 171 232
e 171 234
e 171 247
e 171 255
e 171 257
e 172 174
e 172 191
e 172 193
e 172 204
e 172 217
e 172 225
e 172 228
e 172 250
e 172 260
e 173 179
e 173 205
e 173 240
e 173 258
e 173 262
e 173 266
e 174 180
e 174 184
e 174 191
e 174 193
e 174 197
e 174 201
e 174 204
e 174 206
e 174 207
e 174 221
e 174 250
e 175 177
e 175 197
e 175 202
e 175 216
e 175 220
e 175 236
e 175 244
e 176 185
e 176 204
e 176 228
e 176 232
e 176 240
e 176 249
e 176 251
e 176 252
e 176 254
e 176 264
e 176 265
e 177 202
e 177 213
e 177 216
e 177 227
e 177 236
e 177 252
e 177 258
e 178 192
e 178 200
e 178 225
e 178 230
e 178 231
e 178 242
e 178 245
e 178 247
e 178 263
e 179 194
e 179 199
e 179 205
e 179 210
e 179 224
e 179 236
e 179 245
e 179 258
e 179 266
e 180 184
e 180 197
e 180 201
e 180 206
e 180 207
e 180 215
e 180 221
e 180 239
e 181 190
e 181 208
e 181 231
e 181 241
e 181 249
e 181 253
e 181 262
e 182 242
e 182 257
e 183 191
e 183 194
e 183 195
e 183 220
e 183 227
e 183 239
e 183 256
e 184 197
e 184 201
e 184 203
e 184 206
e 184 207
e 184 211
e 184 221
e 184 248
e 184 261
e 185 188
e 185 189
e 185 195
e 185 199
e 185 203
e 185 219
e 185 228
e 185 263
e 185 264
e 185 265
e 186 189
e 186 196
e 186 226
e 186 229
e 186 234
e 186 247
e 187 196
e 187 206
e 187 209
e 187 246
e 187 266
e 188 189
e 188 195
e 188 199
e 188 202
e 188 203
e 188 219
e 188 222
e 188 251
e 188 260
e 188 263
e 189 195
e 189 196
e 189 199
e 189 203
e 189 219
e 189 226
e 189 229
e 189 263
e 190 193
e 190 231
e 190 241
e 190 249
e 191 193
e 191 194
e 191 204
e 191 220
e 191 227
e 191 239
e 191 250
e 192 200
e 192 225
e 192 230
e 192 242
e 192 247
e 192 263
e 193 204
e 193 250
e 194 199
e 194 210
e 194 220
e 194 224
e 194 227
e 194 236
e 194 239
e 194 245
e 195 199
e 195 203
e 195 219
e 195 256
e 195 263
e 196 226
e 196 229
e 196 246
e 197 201
e 197 206
e 197 207
e 197 220
e 197 221
e 197 244
e 198 201
e 198 224
e 198 234
e 198 235
e 198 237
e 198 243
e 198 250
e 198 259
e 198 265
e 199 203
e 199 210
e 199 219
e 199 224
e 199 236
e 199 245
e 199 263
e 200 212
e 200 214
e 200 222
e 200 225
e 200 230
e 200 242
e 200 247
e 200 256
e 200 263
e 200 264
e 201 206
e 201 207
e 201 221
e 201 234
e 202 216
e 202 222
e 202 236
e 202 251
e 202 260
e 203 211
e 203 219
e 203 248
e 203 261
e 203 263
e 204 232
e 204 240
e 204 249
e 204 250
e 204 251
e 204 252
e 204 254
e 205 207
e 205 208
e 205 237
e 205 246
e 205 258
e 205 266
e 206 207
e 206 209
e 206 221
e 206 266
e 207 208
e 207 221
e 207 237
e 207 246
e 208 237
e 208 246
e 208 253
e 208 262
e 209 210
e 209 218
e 209 223
e 209 244
e 209 261
e 209 266
e 210 218
e 210 223
e 210 224
e 210 236
e 210 244
e 210 245
e 210 261
e 211 233
e 211 248
e 211 261
e 212 214
e 212 217
e 212 222
e 212 223
e 212 232
e 212 255
e 212 256
e 212 257
e 212 264
e 213 227
e 213 229
e 213 238
e 213 248
e 213 252
e 213 255
e 213 258
e 214 218
e 214 221
e 214 222
e 214 233
e 214 254
e 214 256
e 214 259
e 214 264
e 215 230
e 215 239
e 216 236
e 216 238
e 216 243
e 217 223
e 217 225
e 217 228
e 217 232
e 217 255
e 217 257
e 217 260
e 218 221
e 218 223
e 218 233
e 218 244
e 218 254
e 218 259
e 218 261
e 219 235
e 219 253
e 219 263
e 220 227
e 220 239
e 220 244
e 221 233
e 221 254
e 221 259
e 222 251
e 222 256
e 222 260
e 222 264
e 223 232
e 223 244
e 223 255
e 223 257
e 223 261
e 224 235
e 224 236
e 224 237
e 224 243
e 224 245
e 224 250
e 224 259
e 224 265
e 225 228
e 225 230
e 225 242
e 225 247
e 225 260
e 225 263
e 226 229
e 226 241
e 227 239
e 227 252
e 227 258
e 228 260
e 228 264
e 228 265
e 229 238
e 229 248
e 229 255
e 230 242
e 230 247
e 230 263
e 231 241
e 231 245
e 231 249
e 232 240
e 232 249
e 232 251
e 232 252
e 232 254
e 232 255
e 232 257
e 233 254
e 233 259
e 234 247
e 235 237
e 235 243
e 235 250
e 235 253
e 235 259
e 235 265
e 236 245
e 237 243
e 237 246
e 237 250
e 237 259
e 237 265
e 238 243
e 238 248
e 238 255
e 240 249
e 240 251
e 240 252
e 240 254
e 240 262
e 241 249
e 242 247
e 242 257
e 242 263
e 243 250
e 243 259
e 243 265
e 244 261
e 247 263
e 248 255
e 248 261
e 249 251
e 249 252
e 249 254
e 250 259
e 250 265
e 251 252
e 251 254
e 251 260
e 252 254
e 252 258
e 253 262
e 254 259
e 255 257
e 256 264
e 258 266
e 259 265
e 264 265
